30
1 0 13
2 0 15
2 1 34
3 0 18
3 1 15
3 2 33
4 0 22
4 1 34
4 2 31
4 3 17
5 0 23
5 1 22
5 2 27
5 3 15
5 4 36
6 0 33
6 1 14
6 2 39
6 3 25
6 4 14
6 5 28
7 0 5
7 1 34
7 2 8
7 3 19
7 4 1
7 5 25
7 6 6
8 0 3
8 1 37
8 2 31
8 3 4
8 4 1
8 5 4
8 6 33
8 7 22
9 0 6
9 1 8
9 2 20
9 3 17
9 4 22
9 5 6
9 6 11
9 7 28
9 8 16
10 0 20
10 1 12
10 2 25
10 3 18
10 4 28
10 5 14
10 6 19
10 7 36
10 8 31
10 9 30
11 0 38
11 1 18
11 2 25
11 3 20
11 4 3
11 5 19
11 6 18
11 7 32
11 8 37
11 9 40
11 10 13
12 0 9
12 1 15
12 2 4
12 3 1
12 4 22
12 5 6
12 6 5
12 7 15
12 8 18
12 9 23
12 10 26
12 11 26
13 0 20
13 1 25
13 2 3
13 3 18
13 4 3
13 5 30
13 6 7
13 7 3
13 8 12
13 9 1
13 10 19
13 11 5
13 12 30
14 0 30
14 1 22
14 2 25
14 3 40
14 4 31
14 5 11
14 6 26
14 7 2
14 8 33
14 9 13
14 10 25
14 11 39
14 12 38
14 13 8
15 0 20
15 1 32
15 2 25
15 3 11
15 4 29
15 5 3
15 6 4
15 7 37
15 8 11
15 9 31
15 10 8
15 11 4
15 12 32
15 13 24
15 14 31
16 0 34
16 1 4
16 2 22
16 3 1
16 4 26
16 5 28
16 6 24
16 7 36
16 8 23
16 9 14
16 10 30
16 11 4
16 12 19
16 13 19
16 14 31
16 15 6
17 0 39
17 1 3
17 2 17
17 3 9
17 4 34
17 5 23
17 6 35
17 7 35
17 8 39
17 9 24
17 10 34
17 11 14
17 12 3
17 13 22
17 14 24
17 15 6
17 16 33
18 0 33
18 1 18
18 2 34
18 3 11
18 4 25
18 5 2
18 6 15
18 7 10
18 8 34
18 9 7
18 10 5
18 11 22
18 12 29
18 13 30
18 14 40
18 15 40
18 16 1
18 17 32
19 0 1
19 1 22
19 2 26
19 3 38
19 4 33
19 5 11
19 6 24
19 7 1
19 8 23
19 9 16
19 10 14
19 11 35
19 12 10
19 13 21
19 14 30
19 15 13
19 16 28
19 17 40
19 18 23
20 0 40
20 1 16
20 2 10
20 3 39
20 4 15
20 5 37
20 6 33
20 7 24
20 8 10
20 9 1
20 10 4
20 11 5
20 12 24
20 13 15
20 14 4
20 15 9
20 16 19
20 17 4
20 18 33
20 19 28
21 0 9
21 1 25
21 2 4
21 3 37
21 4 24
21 5 25
21 6 28
21 7 34
21 8 6
21 9 37
21 10 15
21 11 13
21 12 3
21 13 32
21 14 38
21 15 21
21 16 24
21 17 1
21 18 33
21 19 29
21 20 9
22 0 16
22 1 11
22 2 15
22 3 28
22 4 30
22 5 22
22 6 35
22 7 24
22 8 31
22 9 23
22 10 35
22 11 19
22 12 39
22 13 33
22 14 7
22 15 16
22 16 30
22 17 33
22 18 2
22 19 2
22 20 8
22 21 32
23 0 26
23 1 38
23 2 15
23 3 3
23 4 23
23 5 8
23 6 36
23 7 3
23 8 22
23 9 40
23 10 19
23 11 26
23 12 20
23 13 38
23 14 7
23 15 15
23 16 38
23 17 15
23 18 40
23 19 12
23 20 5
23 21 35
23 22 6
24 0 34
24 1 21
24 2 13
24 3 14
24 4 35
24 5 24
24 6 8
24 7 39
24 8 18
24 9 29
24 10 3
24 11 13
24 12 25
24 13 36
24 14 17
24 15 14
24 16 8
24 17 35
24 18 11
24 19 1
24 20 10
24 21 9
24 22 8
24 23 22
25 0 9
25 1 32
25 2 29
25 3 25
25 4 19
25 5 35
25 6 17
25 7 12
25 8 31
25 9 17
25 10 28
25 11 37
25 12 10
25 13 24
25 14 23
25 15 32
25 16 8
25 17 21
25 18 29
25 19 27
25 20 32
25 21 16
25 22 20
25 23 35
25 24 27
26 0 4
26 1 1
26 2 32
26 3 5
26 4 31
26 5 6
26 6 8
26 7 36
26 8 16
26 9 11
26 10 19
26 11 8
26 12 14
26 13 38
26 14 17
26 15 29
26 16 24
26 17 4
26 18 2
26 19 29
26 20 10
26 21 3
26 22 30
26 23 22
26 24 12
26 25 35
27 0 26
27 1 34
27 2 20
27 3 16
27 4 6
27 5 34
27 6 29
27 7 13
27 8 33
27 9 2
27 10 7
27 11 12
27 12 4
27 13 11
27 14 24
27 15 9
27 16 31
27 17 4
27 18 1
27 19 1
27 20 38
27 21 38
27 22 25
27 23 4
27 24 33
27 25 15
27 26 15
28 0 10
28 1 35
28 2 16
28 3 35
28 4 2
28 5 5
28 6 40
28 7 21
28 8 32
28 9 16
28 10 29
28 11 28
28 12 14
28 13 34
28 14 21
28 15 34
28 16 31
28 17 17
28 18 5
28 19 23
28 20 17
28 21 25
28 22 11
28 23 39
28 24 38
28 25 40
28 26 38
28 27 9
29 0 17
29 1 10
29 2 15
29 3 28
29 4 12
29 5 23
29 6 7
29 7 5
29 8 10
29 9 40
29 10 17
29 11 7
29 12 38
29 13 31
29 14 39
29 15 36
29 16 9
29 17 32
29 18 27
29 19 33
29 20 12
29 21 35
29 22 5
29 23 9
29 24 2
29 25 12
29 26 5
29 27 13
29 28 19
